p cnf 84 1008
1 2 3 4 5 6 0
1 2 3 -4 7 0
8 2 -3 4 9 0
2 -10 -3 -4 -6 0
-2 10 3 4 6 0
-8 -2 3 -4 -9 0
-1 -2 -3 4 -7 0
-1 -2 -3 -4 -5 -6 0
1 11 12 13 5 14 0
1 11 12 -13 15 0
8 11 -12 13 16 0
11 -10 -12 -13 -14 0
-11 10 12 13 14 0
-8 -11 12 -13 -16 0
-1 -11 -12 13 -15 0
-1 -11 -12 -13 -5 -14 0
1 17 18 19 5 20 0
1 17 18 -19 21 0
8 17 -18 19 22 0
17 -10 -18 -19 -20 0
-17 10 18 19 20 0
-8 -17 18 -19 -22 0
-1 -17 -18 19 -21 0
-1 -17 -18 -19 -5 -20 0
1 23 24 25 5 26 0
1 23 24 -25 27 0
8 23 -24 25 28 0
23 -10 -24 -25 -26 0
-23 10 24 25 26 0
-8 -23 24 -25 -28 0
-1 -23 -24 25 -27 0
-1 -23 -24 -25 -5 -26 0
1 29 30 31 5 32 0
1 29 30 -31 33 0
8 29 -30 31 34 0
29 -10 -30 -31 -32 0
-29 10 30 31 32 0
-8 -29 30 -31 -34 0
-1 -29 -30 31 -33 0
-1 -29 -30 -31 -5 -32 0
1 11 12 35 7 36 0
1 11 12 -35 15 0
2 11 -12 35 37 0
11 -3 -12 -35 -36 0
-11 3 12 35 36 0
-2 -11 12 -35 -37 0
-1 -11 -12 35 -15 0
-1 -11 -12 -35 -7 -36 0
1 17 18 38 7 39 0
1 17 18 -38 21 0
2 17 -18 38 40 0
17 -3 -18 -38 -39 0
-17 3 18 38 39 0
-2 -17 18 -38 -40 0
-1 -17 -18 38 -21 0
-1 -17 -18 -38 -7 -39 0
1 23 24 41 7 42 0
1 23 24 -41 27 0
2 23 -24 41 43 0
23 -3 -24 -41 -42 0
-23 3 24 41 42 0
-2 -23 24 -41 -43 0
-1 -23 -24 41 -27 0
-1 -23 -24 -41 -7 -42 0
1 29 30 44 7 45 0
1 29 30 -44 33 0
2 29 -30 44 46 0
29 -3 -30 -44 -45 0
-29 3 30 44 45 0
-2 -29 30 -44 -46 0
-1 -29 -30 44 -33 0
-1 -29 -30 -44 -7 -45 0
1 17 18 47 15 48 0
1 17 18 -47 21 0
11 17 -18 47 49 0
17 -12 -18 -47 -48 0
-17 12 18 47 48 0
-11 -17 18 -47 -49 0
-1 -17 -18 47 -21 0
-1 -17 -18 -47 -15 -48 0
1 23 24 50 15 51 0
1 23 24 -50 27 0
11 23 -24 50 52 0
23 -12 -24 -50 -51 0
-23 12 24 50 51 0
-11 -23 24 -50 -52 0
-1 -23 -24 50 -27 0
-1 -23 -24 -50 -15 -51 0
1 29 30 53 15 54 0
1 29 30 -53 33 0
11 29 -30 53 55 0
29 -12 -30 -53 -54 0
-29 12 30 53 54 0
-11 -29 30 -53 -55 0
-1 -29 -30 53 -33 0
-1 -29 -30 -53 -15 -54 0
1 23 24 56 21 57 0
1 23 24 -56 27 0
17 23 -24 56 58 0
23 -18 -24 -56 -57 0
-23 18 24 56 57 0
-17 -23 24 -56 -58 0
-1 -23 -24 56 -27 0
-1 -23 -24 -56 -21 -57 0
1 29 30 59 21 60 0
1 29 30 -59 33 0
17 29 -30 59 61 0
29 -18 -30 -59 -60 0
-29 18 30 59 60 0
-17 -29 30 -59 -61 0
-1 -29 -30 59 -33 0
-1 -29 -30 -59 -21 -60 0
1 29 30 62 27 63 0
1 29 30 -62 33 0
23 29 -30 62 64 0
29 -24 -30 -62 -63 0
-29 24 30 62 63 0
-23 -29 30 -62 -64 0
-1 -29 -30 62 -33 0
-1 -29 -30 -62 -27 -63 0
8 11 13 35 9 65 0
8 11 13 -35 16 0
2 11 -13 35 37 0
11 -4 -13 -35 -65 0
-11 4 13 35 65 0
-2 -11 13 -35 -37 0
-8 -11 -13 35 -16 0
-8 -11 -13 -35 -9 -65 0
8 17 19 38 9 66 0
8 17 19 -38 22 0
2 17 -19 38 40 0
17 -4 -19 -38 -66 0
-17 4 19 38 66 0
-2 -17 19 -38 -40 0
-8 -17 -19 38 -22 0
-8 -17 -19 -38 -9 -66 0
8 23 25 41 9 67 0
8 23 25 -41 28 0
2 23 -25 41 43 0
23 -4 -25 -41 -67 0
-23 4 25 41 67 0
-2 -23 25 -41 -43 0
-8 -23 -25 41 -28 0
-8 -23 -25 -41 -9 -67 0
8 29 31 44 9 68 0
8 29 31 -44 34 0
2 29 -31 44 46 0
29 -4 -31 -44 -68 0
-29 4 31 44 68 0
-2 -29 31 -44 -46 0
-8 -29 -31 44 -34 0
-8 -29 -31 -44 -9 -68 0
8 17 19 47 16 69 0
8 17 19 -47 22 0
11 17 -19 47 49 0
17 -13 -19 -47 -69 0
-17 13 19 47 69 0
-11 -17 19 -47 -49 0
-8 -17 -19 47 -22 0
-8 -17 -19 -47 -16 -69 0
8 23 25 50 16 70 0
8 23 25 -50 28 0
11 23 -25 50 52 0
23 -13 -25 -50 -70 0
-23 13 25 50 70 0
-11 -23 25 -50 -52 0
-8 -23 -25 50 -28 0
-8 -23 -25 -50 -16 -70 0
8 29 31 53 16 71 0
8 29 31 -53 34 0
11 29 -31 53 55 0
29 -13 -31 -53 -71 0
-29 13 31 53 71 0
-11 -29 31 -53 -55 0
-8 -29 -31 53 -34 0
-8 -29 -31 -53 -16 -71 0
8 23 25 56 22 72 0
8 23 25 -56 28 0
17 23 -25 56 58 0
23 -19 -25 -56 -72 0
-23 19 25 56 72 0
-17 -23 25 -56 -58 0
-8 -23 -25 56 -28 0
-8 -23 -25 -56 -22 -72 0
8 29 31 59 22 73 0
8 29 31 -59 34 0
17 29 -31 59 61 0
29 -19 -31 -59 -73 0
-29 19 31 59 73 0
-17 -29 31 -59 -61 0
-8 -29 -31 59 -34 0
-8 -29 -31 -59 -22 -73 0
8 29 31 62 28 74 0
8 29 31 -62 34 0
23 29 -31 62 64 0
29 -25 -31 -62 -74 0
-29 25 31 62 74 0
-23 -29 31 -62 -64 0
-8 -29 -31 62 -34 0
-8 -29 -31 -62 -28 -74 0
2 17 38 47 37 75 0
2 17 38 -47 40 0
11 17 -38 47 49 0
17 -35 -38 -47 -75 0
-17 35 38 47 75 0
-11 -17 38 -47 -49 0
-2 -17 -38 47 -40 0
-2 -17 -38 -47 -37 -75 0
2 23 41 50 37 76 0
2 23 41 -50 43 0
11 23 -41 50 52 0
23 -35 -41 -50 -76 0
-23 35 41 50 76 0
-11 -23 41 -50 -52 0
-2 -23 -41 50 -43 0
-2 -23 -41 -50 -37 -76 0
2 29 44 53 37 77 0
2 29 44 -53 46 0
11 29 -44 53 55 0
29 -35 -44 -53 -77 0
-29 35 44 53 77 0
-11 -29 44 -53 -55 0
-2 -29 -44 53 -46 0
-2 -29 -44 -53 -37 -77 0
2 23 41 56 40 78 0
2 23 41 -56 43 0
17 23 -41 56 58 0
23 -38 -41 -56 -78 0
-23 38 41 56 78 0
-17 -23 41 -56 -58 0
-2 -23 -41 56 -43 0
-2 -23 -41 -56 -40 -78 0
2 29 44 59 40 79 0
2 29 44 -59 46 0
17 29 -44 59 61 0
29 -38 -44 -59 -79 0
-29 38 44 59 79 0
-17 -29 44 -59 -61 0
-2 -29 -44 59 -46 0
-2 -29 -44 -59 -40 -79 0
2 29 44 62 43 80 0
2 29 44 -62 46 0
23 29 -44 62 64 0
29 -41 -44 -62 -80 0
-29 41 44 62 80 0
-23 -29 44 -62 -64 0
-2 -29 -44 62 -46 0
-2 -29 -44 -62 -43 -80 0
11 23 50 56 49 81 0
11 23 50 -56 52 0
17 23 -50 56 58 0
23 -47 -50 -56 -81 0
-23 47 50 56 81 0
-17 -23 50 -56 -58 0
-11 -23 -50 56 -52 0
-11 -23 -50 -56 -49 -81 0
11 29 53 59 49 82 0
11 29 53 -59 55 0
17 29 -53 59 61 0
29 -47 -53 -59 -82 0
-29 47 53 59 82 0
-17 -29 53 -59 -61 0
-11 -29 -53 59 -55 0
-11 -29 -53 -59 -49 -82 0
11 29 53 62 52 83 0
11 29 53 -62 55 0
23 29 -53 62 64 0
29 -50 -53 -62 -83 0
-29 50 53 62 83 0
-23 -29 53 -62 -64 0
-11 -29 -53 62 -55 0
-11 -29 -53 -62 -52 -83 0
17 29 59 62 58 84 0
17 29 59 -62 61 0
23 29 -59 62 64 0
29 -56 -59 -62 -84 0
-29 56 59 62 84 0
-23 -29 59 -62 -64 0
-17 -29 -59 62 -61 0
-17 -29 -59 -62 -58 -84 0
10 12 13 35 6 65 0
10 12 13 -35 14 0
3 12 -13 35 36 0
12 -4 -13 -35 -65 0
-12 4 13 35 65 0
-3 -12 13 -35 -36 0
-10 -12 -13 35 -14 0
-10 -12 -13 -35 -6 -65 0
10 18 19 38 6 66 0
10 18 19 -38 20 0
3 18 -19 38 39 0
18 -4 -19 -38 -66 0
-18 4 19 38 66 0
-3 -18 19 -38 -39 0
-10 -18 -19 38 -20 0
-10 -18 -19 -38 -6 -66 0
10 24 25 41 6 67 0
10 24 25 -41 26 0
3 24 -25 41 42 0
24 -4 -25 -41 -67 0
-24 4 25 41 67 0
-3 -24 25 -41 -42 0
-10 -24 -25 41 -26 0
-10 -24 -25 -41 -6 -67 0
10 30 31 44 6 68 0
10 30 31 -44 32 0
3 30 -31 44 45 0
30 -4 -31 -44 -68 0
-30 4 31 44 68 0
-3 -30 31 -44 -45 0
-10 -30 -31 44 -32 0
-10 -30 -31 -44 -6 -68 0
10 18 19 47 14 69 0
10 18 19 -47 20 0
12 18 -19 47 48 0
18 -13 -19 -47 -69 0
-18 13 19 47 69 0
-12 -18 19 -47 -48 0
-10 -18 -19 47 -20 0
-10 -18 -19 -47 -14 -69 0
10 24 25 50 14 70 0
10 24 25 -50 26 0
12 24 -25 50 51 0
24 -13 -25 -50 -70 0
-24 13 25 50 70 0
-12 -24 25 -50 -51 0
-10 -24 -25 50 -26 0
-10 -24 -25 -50 -14 -70 0
10 30 31 53 14 71 0
10 30 31 -53 32 0
12 30 -31 53 54 0
30 -13 -31 -53 -71 0
-30 13 31 53 71 0
-12 -30 31 -53 -54 0
-10 -30 -31 53 -32 0
-10 -30 -31 -53 -14 -71 0
10 24 25 56 20 72 0
10 24 25 -56 26 0
18 24 -25 56 57 0
24 -19 -25 -56 -72 0
-24 19 25 56 72 0
-18 -24 25 -56 -57 0
-10 -24 -25 56 -26 0
-10 -24 -25 -56 -20 -72 0
10 30 31 59 20 73 0
10 30 31 -59 32 0
18 30 -31 59 60 0
30 -19 -31 -59 -73 0
-30 19 31 59 73 0
-18 -30 31 -59 -60 0
-10 -30 -31 59 -32 0
-10 -30 -31 -59 -20 -73 0
10 30 31 62 26 74 0
10 30 31 -62 32 0
24 30 -31 62 63 0
30 -25 -31 -62 -74 0
-30 25 31 62 74 0
-24 -30 31 -62 -63 0
-10 -30 -31 62 -32 0
-10 -30 -31 -62 -26 -74 0
3 18 38 47 36 75 0
3 18 38 -47 39 0
12 18 -38 47 48 0
18 -35 -38 -47 -75 0
-18 35 38 47 75 0
-12 -18 38 -47 -48 0
-3 -18 -38 47 -39 0
-3 -18 -38 -47 -36 -75 0
3 24 41 50 36 76 0
3 24 41 -50 42 0
12 24 -41 50 51 0
24 -35 -41 -50 -76 0
-24 35 41 50 76 0
-12 -24 41 -50 -51 0
-3 -24 -41 50 -42 0
-3 -24 -41 -50 -36 -76 0
3 30 44 53 36 77 0
3 30 44 -53 45 0
12 30 -44 53 54 0
30 -35 -44 -53 -77 0
-30 35 44 53 77 0
-12 -30 44 -53 -54 0
-3 -30 -44 53 -45 0
-3 -30 -44 -53 -36 -77 0
3 24 41 56 39 78 0
3 24 41 -56 42 0
18 24 -41 56 57 0
24 -38 -41 -56 -78 0
-24 38 41 56 78 0
-18 -24 41 -56 -57 0
-3 -24 -41 56 -42 0
-3 -24 -41 -56 -39 -78 0
3 30 44 59 39 79 0
3 30 44 -59 45 0
18 30 -44 59 60 0
30 -38 -44 -59 -79 0
-30 38 44 59 79 0
-18 -30 44 -59 -60 0
-3 -30 -44 59 -45 0
-3 -30 -44 -59 -39 -79 0
3 30 44 62 42 80 0
3 30 44 -62 45 0
24 30 -44 62 63 0
30 -41 -44 -62 -80 0
-30 41 44 62 80 0
-24 -30 44 -62 -63 0
-3 -30 -44 62 -45 0
-3 -30 -44 -62 -42 -80 0
12 24 50 56 48 81 0
12 24 50 -56 51 0
18 24 -50 56 57 0
24 -47 -50 -56 -81 0
-24 47 50 56 81 0
-18 -24 50 -56 -57 0
-12 -24 -50 56 -51 0
-12 -24 -50 -56 -48 -81 0
12 30 53 59 48 82 0
12 30 53 -59 54 0
18 30 -53 59 60 0
30 -47 -53 -59 -82 0
-30 47 53 59 82 0
-18 -30 53 -59 -60 0
-12 -30 -53 59 -54 0
-12 -30 -53 -59 -48 -82 0
12 30 53 62 51 83 0
12 30 53 -62 54 0
24 30 -53 62 63 0
30 -50 -53 -62 -83 0
-30 50 53 62 83 0
-24 -30 53 -62 -63 0
-12 -30 -53 62 -54 0
-12 -30 -53 -62 -51 -83 0
18 30 59 62 57 84 0
18 30 59 -62 60 0
24 30 -59 62 63 0
30 -56 -59 -62 -84 0
-30 56 59 62 84 0
-24 -30 59 -62 -63 0
-18 -30 -59 62 -60 0
-18 -30 -59 -62 -57 -84 0
4 19 38 47 65 75 0
4 19 38 -47 66 0
13 19 -38 47 69 0
19 -35 -38 -47 -75 0
-19 35 38 47 75 0
-13 -19 38 -47 -69 0
-4 -19 -38 47 -66 0
-4 -19 -38 -47 -65 -75 0
4 25 41 50 65 76 0
4 25 41 -50 67 0
13 25 -41 50 70 0
25 -35 -41 -50 -76 0
-25 35 41 50 76 0
-13 -25 41 -50 -70 0
-4 -25 -41 50 -67 0
-4 -25 -41 -50 -65 -76 0
4 31 44 53 65 77 0
4 31 44 -53 68 0
13 31 -44 53 71 0
31 -35 -44 -53 -77 0
-31 35 44 53 77 0
-13 -31 44 -53 -71 0
-4 -31 -44 53 -68 0
-4 -31 -44 -53 -65 -77 0
4 25 41 56 66 78 0
4 25 41 -56 67 0
19 25 -41 56 72 0
25 -38 -41 -56 -78 0
-25 38 41 56 78 0
-19 -25 41 -56 -72 0
-4 -25 -41 56 -67 0
-4 -25 -41 -56 -66 -78 0
4 31 44 59 66 79 0
4 31 44 -59 68 0
19 31 -44 59 73 0
31 -38 -44 -59 -79 0
-31 38 44 59 79 0
-19 -31 44 -59 -73 0
-4 -31 -44 59 -68 0
-4 -31 -44 -59 -66 -79 0
4 31 44 62 67 80 0
4 31 44 -62 68 0
25 31 -44 62 74 0
31 -41 -44 -62 -80 0
-31 41 44 62 80 0
-25 -31 44 -62 -74 0
-4 -31 -44 62 -68 0
-4 -31 -44 -62 -67 -80 0
13 25 50 56 69 81 0
13 25 50 -56 70 0
19 25 -50 56 72 0
25 -47 -50 -56 -81 0
-25 47 50 56 81 0
-19 -25 50 -56 -72 0
-13 -25 -50 56 -70 0
-13 -25 -50 -56 -69 -81 0
13 31 53 59 69 82 0
13 31 53 -59 71 0
19 31 -53 59 73 0
31 -47 -53 -59 -82 0
-31 47 53 59 82 0
-19 -31 53 -59 -73 0
-13 -31 -53 59 -71 0
-13 -31 -53 -59 -69 -82 0
13 31 53 62 70 83 0
13 31 53 -62 71 0
25 31 -53 62 74 0
31 -50 -53 -62 -83 0
-31 50 53 62 83 0
-25 -31 53 -62 -74 0
-13 -31 -53 62 -71 0
-13 -31 -53 -62 -70 -83 0
19 31 59 62 72 84 0
19 31 59 -62 73 0
25 31 -59 62 74 0
31 -56 -59 -62 -84 0
-31 56 59 62 84 0
-25 -31 59 -62 -74 0
-19 -31 -59 62 -73 0
-19 -31 -59 -62 -72 -84 0
35 41 50 56 75 81 0
35 41 50 -56 76 0
38 41 -50 56 78 0
41 -47 -50 -56 -81 0
-41 47 50 56 81 0
-38 -41 50 -56 -78 0
-35 -41 -50 56 -76 0
-35 -41 -50 -56 -75 -81 0
35 44 53 59 75 82 0
35 44 53 -59 77 0
38 44 -53 59 79 0
44 -47 -53 -59 -82 0
-44 47 53 59 82 0
-38 -44 53 -59 -79 0
-35 -44 -53 59 -77 0
-35 -44 -53 -59 -75 -82 0
35 44 53 62 76 83 0
35 44 53 -62 77 0
41 44 -53 62 80 0
44 -50 -53 -62 -83 0
-44 50 53 62 83 0
-41 -44 53 -62 -80 0
-35 -44 -53 62 -77 0
-35 -44 -53 -62 -76 -83 0
38 44 59 62 78 84 0
38 44 59 -62 79 0
41 44 -59 62 80 0
44 -56 -59 -62 -84 0
-44 56 59 62 84 0
-41 -44 59 -62 -80 0
-38 -44 -59 62 -79 0
-38 -44 -59 -62 -78 -84 0
47 53 59 62 81 84 0
47 53 59 -62 82 0
50 53 -59 62 83 0
53 -56 -59 -62 -84 0
-53 56 59 62 84 0
-50 -53 59 -62 -83 0
-47 -53 -59 62 -82 0
-47 -53 -59 -62 -81 -84 0
5 15 16 37 6 65 0
5 15 16 -37 14 0
7 15 -16 37 36 0
15 -9 -16 -37 -65 0
-15 9 16 37 65 0
-7 -15 16 -37 -36 0
-5 -15 -16 37 -14 0
-5 -15 -16 -37 -6 -65 0
5 21 22 40 6 66 0
5 21 22 -40 20 0
7 21 -22 40 39 0
21 -9 -22 -40 -66 0
-21 9 22 40 66 0
-7 -21 22 -40 -39 0
-5 -21 -22 40 -20 0
-5 -21 -22 -40 -6 -66 0
5 27 28 43 6 67 0
5 27 28 -43 26 0
7 27 -28 43 42 0
27 -9 -28 -43 -67 0
-27 9 28 43 67 0
-7 -27 28 -43 -42 0
-5 -27 -28 43 -26 0
-5 -27 -28 -43 -6 -67 0
5 33 34 46 6 68 0
5 33 34 -46 32 0
7 33 -34 46 45 0
33 -9 -34 -46 -68 0
-33 9 34 46 68 0
-7 -33 34 -46 -45 0
-5 -33 -34 46 -32 0
-5 -33 -34 -46 -6 -68 0
5 21 22 49 14 69 0
5 21 22 -49 20 0
15 21 -22 49 48 0
21 -16 -22 -49 -69 0
-21 16 22 49 69 0
-15 -21 22 -49 -48 0
-5 -21 -22 49 -20 0
-5 -21 -22 -49 -14 -69 0
5 27 28 52 14 70 0
5 27 28 -52 26 0
15 27 -28 52 51 0
27 -16 -28 -52 -70 0
-27 16 28 52 70 0
-15 -27 28 -52 -51 0
-5 -27 -28 52 -26 0
-5 -27 -28 -52 -14 -70 0
5 33 34 55 14 71 0
5 33 34 -55 32 0
15 33 -34 55 54 0
33 -16 -34 -55 -71 0
-33 16 34 55 71 0
-15 -33 34 -55 -54 0
-5 -33 -34 55 -32 0
-5 -33 -34 -55 -14 -71 0
5 27 28 58 20 72 0
5 27 28 -58 26 0
21 27 -28 58 57 0
27 -22 -28 -58 -72 0
-27 22 28 58 72 0
-21 -27 28 -58 -57 0
-5 -27 -28 58 -26 0
-5 -27 -28 -58 -20 -72 0
5 33 34 61 20 73 0
5 33 34 -61 32 0
21 33 -34 61 60 0
33 -22 -34 -61 -73 0
-33 22 34 61 73 0
-21 -33 34 -61 -60 0
-5 -33 -34 61 -32 0
-5 -33 -34 -61 -20 -73 0
5 33 34 64 26 74 0
5 33 34 -64 32 0
27 33 -34 64 63 0
33 -28 -34 -64 -74 0
-33 28 34 64 74 0
-27 -33 34 -64 -63 0
-5 -33 -34 64 -32 0
-5 -33 -34 -64 -26 -74 0
7 21 40 49 36 75 0
7 21 40 -49 39 0
15 21 -40 49 48 0
21 -37 -40 -49 -75 0
-21 37 40 49 75 0
-15 -21 40 -49 -48 0
-7 -21 -40 49 -39 0
-7 -21 -40 -49 -36 -75 0
7 27 43 52 36 76 0
7 27 43 -52 42 0
15 27 -43 52 51 0
27 -37 -43 -52 -76 0
-27 37 43 52 76 0
-15 -27 43 -52 -51 0
-7 -27 -43 52 -42 0
-7 -27 -43 -52 -36 -76 0
7 33 46 55 36 77 0
7 33 46 -55 45 0
15 33 -46 55 54 0
33 -37 -46 -55 -77 0
-33 37 46 55 77 0
-15 -33 46 -55 -54 0
-7 -33 -46 55 -45 0
-7 -33 -46 -55 -36 -77 0
7 27 43 58 39 78 0
7 27 43 -58 42 0
21 27 -43 58 57 0
27 -40 -43 -58 -78 0
-27 40 43 58 78 0
-21 -27 43 -58 -57 0
-7 -27 -43 58 -42 0
-7 -27 -43 -58 -39 -78 0
7 33 46 61 39 79 0
7 33 46 -61 45 0
21 33 -46 61 60 0
33 -40 -46 -61 -79 0
-33 40 46 61 79 0
-21 -33 46 -61 -60 0
-7 -33 -46 61 -45 0
-7 -33 -46 -61 -39 -79 0
7 33 46 64 42 80 0
7 33 46 -64 45 0
27 33 -46 64 63 0
33 -43 -46 -64 -80 0
-33 43 46 64 80 0
-27 -33 46 -64 -63 0
-7 -33 -46 64 -45 0
-7 -33 -46 -64 -42 -80 0
15 27 52 58 48 81 0
15 27 52 -58 51 0
21 27 -52 58 57 0
27 -49 -52 -58 -81 0
-27 49 52 58 81 0
-21 -27 52 -58 -57 0
-15 -27 -52 58 -51 0
-15 -27 -52 -58 -48 -81 0
15 33 55 61 48 82 0
15 33 55 -61 54 0
21 33 -55 61 60 0
33 -49 -55 -61 -82 0
-33 49 55 61 82 0
-21 -33 55 -61 -60 0
-15 -33 -55 61 -54 0
-15 -33 -55 -61 -48 -82 0
15 33 55 64 51 83 0
15 33 55 -64 54 0
27 33 -55 64 63 0
33 -52 -55 -64 -83 0
-33 52 55 64 83 0
-27 -33 55 -64 -63 0
-15 -33 -55 64 -54 0
-15 -33 -55 -64 -51 -83 0
21 33 61 64 57 84 0
21 33 61 -64 60 0
27 33 -61 64 63 0
33 -58 -61 -64 -84 0
-33 58 61 64 84 0
-27 -33 61 -64 -63 0
-21 -33 -61 64 -60 0
-21 -33 -61 -64 -57 -84 0
9 22 40 49 65 75 0
9 22 40 -49 66 0
16 22 -40 49 69 0
22 -37 -40 -49 -75 0
-22 37 40 49 75 0
-16 -22 40 -49 -69 0
-9 -22 -40 49 -66 0
-9 -22 -40 -49 -65 -75 0
9 28 43 52 65 76 0
9 28 43 -52 67 0
16 28 -43 52 70 0
28 -37 -43 -52 -76 0
-28 37 43 52 76 0
-16 -28 43 -52 -70 0
-9 -28 -43 52 -67 0
-9 -28 -43 -52 -65 -76 0
9 34 46 55 65 77 0
9 34 46 -55 68 0
16 34 -46 55 71 0
34 -37 -46 -55 -77 0
-34 37 46 55 77 0
-16 -34 46 -55 -71 0
-9 -34 -46 55 -68 0
-9 -34 -46 -55 -65 -77 0
9 28 43 58 66 78 0
9 28 43 -58 67 0
22 28 -43 58 72 0
28 -40 -43 -58 -78 0
-28 40 43 58 78 0
-22 -28 43 -58 -72 0
-9 -28 -43 58 -67 0
-9 -28 -43 -58 -66 -78 0
9 34 46 61 66 79 0
9 34 46 -61 68 0
22 34 -46 61 73 0
34 -40 -46 -61 -79 0
-34 40 46 61 79 0
-22 -34 46 -61 -73 0
-9 -34 -46 61 -68 0
-9 -34 -46 -61 -66 -79 0
9 34 46 64 67 80 0
9 34 46 -64 68 0
28 34 -46 64 74 0
34 -43 -46 -64 -80 0
-34 43 46 64 80 0
-28 -34 46 -64 -74 0
-9 -34 -46 64 -68 0
-9 -34 -46 -64 -67 -80 0
16 28 52 58 69 81 0
16 28 52 -58 70 0
22 28 -52 58 72 0
28 -49 -52 -58 -81 0
-28 49 52 58 81 0
-22 -28 52 -58 -72 0
-16 -28 -52 58 -70 0
-16 -28 -52 -58 -69 -81 0
16 34 55 61 69 82 0
16 34 55 -61 71 0
22 34 -55 61 73 0
34 -49 -55 -61 -82 0
-34 49 55 61 82 0
-22 -34 55 -61 -73 0
-16 -34 -55 61 -71 0
-16 -34 -55 -61 -69 -82 0
16 34 55 64 70 83 0
16 34 55 -64 71 0
28 34 -55 64 74 0
34 -52 -55 -64 -83 0
-34 52 55 64 83 0
-28 -34 55 -64 -74 0
-16 -34 -55 64 -71 0
-16 -34 -55 -64 -70 -83 0
22 34 61 64 72 84 0
22 34 61 -64 73 0
28 34 -61 64 74 0
34 -58 -61 -64 -84 0
-34 58 61 64 84 0
-28 -34 61 -64 -74 0
-22 -34 -61 64 -73 0
-22 -34 -61 -64 -72 -84 0
37 43 52 58 75 81 0
37 43 52 -58 76 0
40 43 -52 58 78 0
43 -49 -52 -58 -81 0
-43 49 52 58 81 0
-40 -43 52 -58 -78 0
-37 -43 -52 58 -76 0
-37 -43 -52 -58 -75 -81 0
37 46 55 61 75 82 0
37 46 55 -61 77 0
40 46 -55 61 79 0
46 -49 -55 -61 -82 0
-46 49 55 61 82 0
-40 -46 55 -61 -79 0
-37 -46 -55 61 -77 0
-37 -46 -55 -61 -75 -82 0
37 46 55 64 76 83 0
37 46 55 -64 77 0
43 46 -55 64 80 0
46 -52 -55 -64 -83 0
-46 52 55 64 83 0
-43 -46 55 -64 -80 0
-37 -46 -55 64 -77 0
-37 -46 -55 -64 -76 -83 0
40 46 61 64 78 84 0
40 46 61 -64 79 0
43 46 -61 64 80 0
46 -58 -61 -64 -84 0
-46 58 61 64 84 0
-43 -46 61 -64 -80 0
-40 -46 -61 64 -79 0
-40 -46 -61 -64 -78 -84 0
49 55 61 64 81 84 0
49 55 61 -64 82 0
52 55 -61 64 83 0
55 -58 -61 -64 -84 0
-55 58 61 64 84 0
-52 -55 61 -64 -83 0
-49 -55 -61 64 -82 0
-49 -55 -61 -64 -81 -84 0
6 20 39 48 65 75 0
6 20 39 -48 66 0
14 20 -39 48 69 0
20 -36 -39 -48 -75 0
-20 36 39 48 75 0
-14 -20 39 -48 -69 0
-6 -20 -39 48 -66 0
-6 -20 -39 -48 -65 -75 0
6 26 42 51 65 76 0
6 26 42 -51 67 0
14 26 -42 51 70 0
26 -36 -42 -51 -76 0
-26 36 42 51 76 0
-14 -26 42 -51 -70 0
-6 -26 -42 51 -67 0
-6 -26 -42 -51 -65 -76 0
6 32 45 54 65 77 0
6 32 45 -54 68 0
14 32 -45 54 71 0
32 -36 -45 -54 -77 0
-32 36 45 54 77 0
-14 -32 45 -54 -71 0
-6 -32 -45 54 -68 0
-6 -32 -45 -54 -65 -77 0
6 26 42 57 66 78 0
6 26 42 -57 67 0
20 26 -42 57 72 0
26 -39 -42 -57 -78 0
-26 39 42 57 78 0
-20 -26 42 -57 -72 0
-6 -26 -42 57 -67 0
-6 -26 -42 -57 -66 -78 0
6 32 45 60 66 79 0
6 32 45 -60 68 0
20 32 -45 60 73 0
32 -39 -45 -60 -79 0
-32 39 45 60 79 0
-20 -32 45 -60 -73 0
-6 -32 -45 60 -68 0
-6 -32 -45 -60 -66 -79 0
6 32 45 63 67 80 0
6 32 45 -63 68 0
26 32 -45 63 74 0
32 -42 -45 -63 -80 0
-32 42 45 63 80 0
-26 -32 45 -63 -74 0
-6 -32 -45 63 -68 0
-6 -32 -45 -63 -67 -80 0
14 26 51 57 69 81 0
14 26 51 -57 70 0
20 26 -51 57 72 0
26 -48 -51 -57 -81 0
-26 48 51 57 81 0
-20 -26 51 -57 -72 0
-14 -26 -51 57 -70 0
-14 -26 -51 -57 -69 -81 0
14 32 54 60 69 82 0
14 32 54 -60 71 0
20 32 -54 60 73 0
32 -48 -54 -60 -82 0
-32 48 54 60 82 0
-20 -32 54 -60 -73 0
-14 -32 -54 60 -71 0
-14 -32 -54 -60 -69 -82 0
14 32 54 63 70 83 0
14 32 54 -63 71 0
26 32 -54 63 74 0
32 -51 -54 -63 -83 0
-32 51 54 63 83 0
-26 -32 54 -63 -74 0
-14 -32 -54 63 -71 0
-14 -32 -54 -63 -70 -83 0
20 32 60 63 72 84 0
20 32 60 -63 73 0
26 32 -60 63 74 0
32 -57 -60 -63 -84 0
-32 57 60 63 84 0
-26 -32 60 -63 -74 0
-20 -32 -60 63 -73 0
-20 -32 -60 -63 -72 -84 0
36 42 51 57 75 81 0
36 42 51 -57 76 0
39 42 -51 57 78 0
42 -48 -51 -57 -81 0
-42 48 51 57 81 0
-39 -42 51 -57 -78 0
-36 -42 -51 57 -76 0
-36 -42 -51 -57 -75 -81 0
36 45 54 60 75 82 0
36 45 54 -60 77 0
39 45 -54 60 79 0
45 -48 -54 -60 -82 0
-45 48 54 60 82 0
-39 -45 54 -60 -79 0
-36 -45 -54 60 -77 0
-36 -45 -54 -60 -75 -82 0
36 45 54 63 76 83 0
36 45 54 -63 77 0
42 45 -54 63 80 0
45 -51 -54 -63 -83 0
-45 51 54 63 83 0
-42 -45 54 -63 -80 0
-36 -45 -54 63 -77 0
-36 -45 -54 -63 -76 -83 0
39 45 60 63 78 84 0
39 45 60 -63 79 0
42 45 -60 63 80 0
45 -57 -60 -63 -84 0
-45 57 60 63 84 0
-42 -45 60 -63 -80 0
-39 -45 -60 63 -79 0
-39 -45 -60 -63 -78 -84 0
48 54 60 63 81 84 0
48 54 60 -63 82 0
51 54 -60 63 83 0
54 -57 -60 -63 -84 0
-54 57 60 63 84 0
-51 -54 60 -63 -83 0
-48 -54 -60 63 -82 0
-48 -54 -60 -63 -81 -84 0
65 67 70 72 75 81 0
65 67 70 -72 76 0
66 67 -70 72 78 0
67 -69 -70 -72 -81 0
-67 69 70 72 81 0
-66 -67 70 -72 -78 0
-65 -67 -70 72 -76 0
-65 -67 -70 -72 -75 -81 0
65 68 71 73 75 82 0
65 68 71 -73 77 0
66 68 -71 73 79 0
68 -69 -71 -73 -82 0
-68 69 71 73 82 0
-66 -68 71 -73 -79 0
-65 -68 -71 73 -77 0
-65 -68 -71 -73 -75 -82 0
65 68 71 74 76 83 0
65 68 71 -74 77 0
67 68 -71 74 80 0
68 -70 -71 -74 -83 0
-68 70 71 74 83 0
-67 -68 71 -74 -80 0
-65 -68 -71 74 -77 0
-65 -68 -71 -74 -76 -83 0
66 68 73 74 78 84 0
66 68 73 -74 79 0
67 68 -73 74 80 0
68 -72 -73 -74 -84 0
-68 72 73 74 84 0
-67 -68 73 -74 -80 0
-66 -68 -73 74 -79 0
-66 -68 -73 -74 -78 -84 0
69 71 73 74 81 84 0
69 71 73 -74 82 0
70 71 -73 74 83 0
71 -72 -73 -74 -84 0
-71 72 73 74 84 0
-70 -71 73 -74 -83 0
-69 -71 -73 74 -82 0
-69 -71 -73 -74 -81 -84 0
75 77 79 80 81 84 0
75 77 79 -80 82 0
76 77 -79 80 83 0
77 -78 -79 -80 -84 0
-77 78 79 80 84 0
-76 -77 79 -80 -83 0
-75 -77 -79 80 -82 0
-75 -77 -79 -80 -81 -84 0
